************************************************************************
file with basedata            : md348_.bas
initial value random generator: 918790791
************************************************************************
projects                      :  1
jobs (incl. supersource/sink ):  22
horizon                       :  154
RESOURCES
  - renewable                 :  2   R
  - nonrenewable              :  2   N
  - doubly constrained        :  0   D
************************************************************************
PROJECT INFORMATION:
pronr.  #jobs rel.date duedate tardcost  MPM-Time
    1     20      0       18       13       18
************************************************************************
PRECEDENCE RELATIONS:
jobnr.    #modes  #successors   successors
   1        1          3           2   3   4
   2        3          3           5   6  11
   3        3          3           6  13  14
   4        3          3           8   9  13
   5        3          2          16  18
   6        3          2           7  20
   7        3          1          18
   8        3          2          15  17
   9        3          3          10  16  21
  10        3          2          12  15
  11        3          2          12  13
  12        3          2          17  18
  13        3          2          17  21
  14        3          2          15  21
  15        3          1          19
  16        3          2          19  20
  17        3          1          20
  18        3          1          19
  19        3          1          22
  20        3          1          22
  21        3          1          22
  22        1          0        
************************************************************************
REQUESTS/DURATIONS:
jobnr. mode duration  R 1  R 2  N 1  N 2
------------------------------------------------------------------------
  1      1     0       0    0    0    0
  2      1     1       0    3    0    8
         2     2       0    2    4    0
         3     3       7    0    0    7
  3      1     4       0    9    0    4
         2     7      10    0    0    3
         3     8       0    8    0    3
  4      1     5       6    0    0    3
         2     6       0    8    1    0
         3     7       0    5    0    1
  5      1     3       2    0    8    0
         2     7       0    6    0    7
         3     8       0    4    8    0
  6      1     4       5    0    4    0
         2     7       0    6    3    0
         3    10       5    0    0    3
  7      1     2       0    1    0    9
         2     7       3    0    0    8
         3    10       3    0    6    0
  8      1     1       0    4    0   10
         2     7       0    3    0    9
         3     8       5    0    0    9
  9      1     3       0    9    6    0
         2     3       0    7    0    6
         3     8       3    0    0    6
 10      1     2       8    0    5    0
         2     3       0    6    3    0
         3     7       0    5    0    3
 11      1     6       9    0    9    0
         2     7       9    0    0   10
         3     9       8    0    0    9
 12      1     1       8    0    0    9
         2     5       8    0    0    7
         3     6       5    0    0    5
 13      1     3       0    3    0    8
         2     3      10    0    9    0
         3    10       5    0    9    0
 14      1     2       0    8    0    7
         2     4       8    0    0    7
         3     6       5    0    4    0
 15      1     3       8    0    0    7
         2     5       5    0    0    6
         3     6       3    0    3    0
 16      1     2       0   10    0    2
         2     4       8    0    9    0
         3     6       5    0    8    0
 17      1     2       8    0    5    0
         2     3       7    0    0    4
         3    10       3    0    0    3
 18      1     1       8    0    0    6
         2     4       0    8    6    0
         3     5       0    7    0    2
 19      1     1       8    0    6    0
         2     1       0    5    5    0
         3     9       0    5    4    0
 20      1     2       0    3    0   10
         2     7       0    3    5    0
         3     8       0    3    2    0
 21      1     8       0    7    0    9
         2     9      10    0    6    0
         3    10      10    0    5    0
 22      1     0       0    0    0    0
************************************************************************
RESOURCEAVAILABILITIES:
  R 1  R 2  N 1  N 2
   37   29   96  125
************************************************************************
